# Crystalline silicon : computation of the total energy
#

#Definition of the unit cell
acell  10.325  10.325  10.325
rprim  0.0  0.5  0.5   # In tutorials 1 and 2, these primitive vectors
       0.5  0.0  0.5   # (to be scaled by acell) were 1 0 0  0 1 0  0 0 1
       0.5  0.5  0.0   # that is, the default.

#Definition of the atom types
ntypat 1          # There is only one type of atom
znucl 14          # The keyword "znucl" refers to the atomic number of the
                  # possible type(s) of atom. The pseudopotential(s)
                  # mentioned in the "files" file must correspond
                  # to the type(s) of atom. Here, the only type is Silicon.
pp_dirpath "./"        # This is the path to the directory were
                       # pseudopotentials for tests are stored
pseudos "Si.psp8"      # Name and location of the pseudopotential

#Definition of the atoms
natom 2           # There are two atoms
typat 1 1         # They both are of type 1, that is, Silicon.
xred              # This keyword indicate that the location of the atoms
                  # will follow, one triplet of number for each atom
   0.0  0.0  0.0  # Triplet giving the REDUCED coordinate of atom 1.
   1/4  1/4  1/4  # Triplet giving the REDUCED coordinate of atom 2.
                  # Note the use of fractions (remember the limited
                  # interpreter capabilities of ABINIT)

#Definition of the planewave basis set
ecut  50.0        # Maximal kinetic energy cut-off, in Hartree

#Definition of the k-point grid
kptopt 4          
ngkpt 10 10 10    # This is a 10x10x10 grid based on the primitive vectors
nshiftk 1
shiftk 0.0 0.0 0.0

occopt 7          # 7:Methfessel-Paxton, 3: Fermi-Dirac, 4: Gaussian
tsmear 0.04       # smearing width: 0.04 [Ha] = 0.02 [Ry]

#Definition of the SCF procedure
nstep 100         # Maximal number of SCF cycles
toldfe 1.0d-4     # Will stop when, twice in a row, the difference (1.0d-4 [Ha] = 1.0d-6 [Ry] (QE))
                  # between two consecutive evaluations of total energy
                  # differ by less than toldfe (in Hartree)
                  # This value is WAY TOO LARGE for most realistic studies of materials
