
acell    3*7.3075326034

rprim    1.000000000000000   0.000000000000000   0.000000000000000
         0.500000000000000   0.866025403784439   0.000000000000000
         0.500000000000000   0.288675134594813   0.816496580927726

natom    2
ntypat   1
typat    1 1
znucl    14
xred     0.750000000000000   0.750000000000000   0.750000000000000
         0.500000000000000   0.500000000000000   0.500000000000000

# Common
ngkpt 8 8 8
nshiftk 4
shiftk 0.5 0.5 0.5
       0.5 0.0 0.0
       0.0 0.5 0.0
       0.0 0.0 0.5

ecut 30.
pawecutdg 60.

nsppol 1

toldfe 1.0d-6

pseudos = "Si.GGA_PBE-JTH.xml"
