&CONTROL
  calculation  = 'scf' ,
  prefix  = 'POSCAR' ,
  outdir  = './work/' ,
  pseudo_dir = './' ,
  tstress = .true.
  tprnfor = .true.
/
&SYSTEM
  ibrav = 0
  A =    3.86698
  nat = 2
  ntyp = 1
  ecutwfc  =  44.0 ,
  ecutrho  = 175.0 ,
  occupations = 'smearing' ,
  degauss  = 0.02 ,
  smearing = 'mp',
/
&ELECTRONS
  conv_thr = 1.0e-06 ,
  mixing_beta = 0.7 ,
/
CELL_PARAMETERS {alat}
  1.000000000000000   0.000000000000000   0.000000000000000 
  0.500000000000000   0.866025403784439   0.000000000000000 
  0.500000000000000   0.288675134594813   0.816496580927726 
ATOMIC_SPECIES
  Si   28.08500  Si.pbe-nl-kjpaw_psl.1.0.0.UPF
ATOMIC_POSITIONS {crystal}
  Si   0.750000000000000   0.750000000000000   0.750000000000000 
  Si   0.500000000000000   0.500000000000000   0.500000000000000 
K_POINTS automatic
 12 12 12  0 0 0